nNurses = 166;
nHours = 26;
minHours = 4;
maxHours = 18;
maxConsec = 17;
maxPresence = 15;
demand = [11, 11, 11, 14, 9, 7, 10, 14, 15, 19, 22, 20, 17, 15, 17, 19, 21, 17, 22, 24, 23, 23, 23, 24, 27, 26];
